QBPP_HJ+_25_025_20_4
25 65 1735
18 10 39 44 46 48 33 35 18 32 5 23 16 11 22 46 34 19 11 2 24 21 14 30 40
    0    0    0    0   89    0    0    0    0    0    0    0    0    0    0    0    0   58    0    0   73    0    0    0   18
    0    0   18    0    0    0    0    0    0    9    0    0    0    0    0    0    0   25    0    0   73   30    0    0    0
    0   18    0    0   64    0   18   18   47   60    0    0    0    0    0    0   76    0   17    0    0    0    0    0   63
    0    0    0    0   69    0    0    0    0   79   60    0    0    0    7    0    7    0   83   21    0    0    0    0    0
   89    0   64   69    0    0   28    0    0    0    0   61    0    0    0    0    0   30    0    0    0    0    0    0    0
    0    0    0    0    0    0   82   30   76    0    0    0   37    0   80   35    0    0    0    0    0    0    0   73    0
    0    0   18    0   28   82    0    0    0    0   45    0    0    0    0    0    0    0    0    0    0   77    0    0    0
    0    0   18    0    0   30    0    0    0    0    0    0   64    0    0    0    0    0    0    0    0   30    0    0    0
    0    0   47    0    0   76    0    0    0    0   94    0    0    0    0    0   85    0    0   81    0   74    0    0    0
    0    9   60   79    0    0    0    0    0    0    0    0    0    0    0   92   14    0    0   20    0    0   35    0  100
    0    0    0   60    0    0   45    0   94    0    0    0    0   18    0   72    0    0    0   14    0   88    0   63    0
    0    0    0    0   61    0    0    0    0    0    0    0    0    0    0   13    6    0    0    0    0    0   53   89    0
    0    0    0    0    0   37    0   64    0    0    0    0    0   48    0    0   15    0    0    0    0    0    0    0   20
    0    0    0    0    0    0    0    0    0    0   18    0   48    0    0    8    0    0    0    0    0    0    0    0    0
    0    0    0    7    0   80    0    0    0    0    0    0    0    0    0    0    0   29    0   49    0   40   21    0   74
    0    0    0    0    0   35    0    0    0   92   72   13    0    8    0    0   14    0   80    0    0    0    0    0   95
    0    0   76    7    0    0    0    0   85   14    0    6   15    0    0   14    0    0    0   37    0    0   28    0    0
   58   25    0    0   30    0    0    0    0    0    0    0    0    0   29    0    0    0   36    0    0    0    0    0    0
    0    0   17   83    0    0    0    0    0    0    0    0    0    0    0   80    0   36    0    0   36    0   63    0    0
    0    0    0   21    0    0    0    0   81   20   14    0    0    0   49    0   37    0    0    0    0   92   76   59    0
   73   73    0    0    0    0    0    0    0    0    0    0    0    0    0    0    0    0   36    0    0    0    0    0    0
    0   30    0    0    0    0   77   30   74    0   88    0    0    0   40    0    0    0    0   92    0    0   34    0    0
    0    0    0    0    0    0    0    0    0   35    0   53    0    0   21    0   28    0   63   76    0   34    0    0    0
    0    0    0    0    0   73    0    0    0    0   63   89    0    0    0    0    0    0    0   59    0    0    0    0    0
   18    0   63    0    0    0    0    0    0  100    0    0   20    0   74   95    0    0    0    0    0    0    0    0    0
